784 1568
1 2 5
1 29 1
2 3 4
2 30 5
3 4 1
3 31 3
4 5 2
4 32 2
5 6 1
5 33 3
6 7 1
6 34 4
7 8 4
7 35 3
8 9 4
8 36 1
9 10 5
9 37 4
10 11 2
10 38 5
11 12 1
11 39 5
12 13 3
12 40 4
13 14 1
13 41 2
14 15 2
14 42 1
15 16 4
15 43 5
16 17 5
16 44 5
17 18 5
17 45 4
18 19 2
18 46 3
19 20 2
19 47 4
20 21 3
20 48 2
21 22 4
21 49 2
22 23 1
22 50 1
23 24 3
23 51 1
24 25 2
24 52 1
25 26 4
25 53 2
26 27 1
26 54 4
27 28 5
27 55 3
28 56 5
29 30 5
29 57 3
30 31 2
30 58 4
31 32 4
31 59 3
32 33 3
32 60 5
33 34 4
33 61 2
34 35 4
34 62 1
35 36 5
35 63 1
36 37 2
36 64 3
37 38 2
37 65 1
38 39 1
38 66 5
39 40 3
39 67 5
40 41 3
40 68 3
41 42 3
41 69 4
42 43 5
42 70 4
43 44 1
43 71 3
44 45 2
44 72 1
45 46 4
45 73 2
46 47 4
46 74 3
47 48 1
47 75 3
48 49 3
48 76 4
49 50 5
49 77 3
50 51 2
50 78 2
51 52 5
51 79 1
52 53 3
52 80 3
53 54 1
53 81 4
54 55 1
54 82 5
55 56 2
55 83 3
56 84 4
57 58 4
57 85 5
58 59 4
58 86 3
59 60 1
59 87 5
60 61 2
60 88 5
61 62 3
61 89 3
62 63 4
62 90 5
63 64 1
63 91 1
64 65 4
64 92 2
65 66 3
65 93 3
66 67 5
66 94 4
67 68 3
67 95 2
68 69 3
68 96 2
69 70 2
69 97 4
70 71 1
70 98 4
71 72 5
71 99 2
72 73 3
72 100 1
73 74 2
73 101 4
74 75 5
74 102 2
75 76 5
75 103 1
76 77 1
76 104 5
77 78 2
77 105 5
78 79 1
78 106 4
79 80 5
79 107 3
80 81 2
80 108 1
81 82 4
81 109 3
82 83 2
82 110 3
83 84 2
83 111 1
84 112 5
85 86 3
85 113 5
86 87 5
86 114 2
87 88 1
87 115 1
88 89 5
88 116 3
89 90 3
89 117 4
90 91 5
90 118 2
91 92 3
91 119 3
92 93 1
92 120 3
93 94 1
93 121 4
94 95 4
94 122 4
95 96 2
95 123 3
96 97 2
96 124 3
97 98 1
97 125 2
98 99 5
98 126 2
99 100 4
99 127 3
100 101 1
100 128 2
101 102 4
101 129 4
102 103 4
102 130 2
103 104 4
103 131 4
104 105 5
104 132 4
105 106 3
105 133 3
106 107 2
106 134 5
107 108 3
107 135 3
108 109 5
108 136 1
109 110 5
109 137 3
110 111 4
110 138 5
111 112 3
111 139 2
112 140 2
113 114 3
113 141 3
114 115 4
114 142 5
115 116 4
115 143 4
116 117 2
116 144 2
117 118 4
117 145 4
118 119 4
118 146 1
119 120 3
119 147 1
120 121 1
120 148 1
121 122 4
121 149 3
122 123 4
122 150 1
123 124 2
123 151 4
124 125 3
124 152 4
125 126 3
125 153 4
126 127 3
126 154 5
127 128 5
127 155 3
128 129 4
128 156 1
129 130 5
129 157 4
130 131 4
130 158 5
131 132 3
131 159 3
132 133 2
132 160 2
133 134 4
133 161 3
134 135 1
134 162 1
135 136 1
135 163 1
136 137 2
136 164 4
137 138 4
137 165 1
138 139 3
138 166 4
139 140 1
139 167 4
140 168 2
141 142 4
141 169 3
142 143 3
142 170 4
143 144 2
143 171 3
144 145 1
144 172 5
145 146 4
145 173 2
146 147 1
146 174 4
147 148 4
147 175 1
148 149 4
148 176 2
149 150 5
149 177 4
150 151 4
150 178 1
151 152 1
151 179 1
152 153 4
152 180 3
153 154 5
153 181 5
154 155 3
154 182 1
155 156 3
155 183 1
156 157 4
156 184 1
157 158 3
157 185 2
158 159 5
158 186 5
159 160 4
159 187 3
160 161 3
160 188 4
161 162 4
161 189 4
162 163 2
162 190 5
163 164 5
163 191 2
164 165 1
164 192 2
165 166 4
165 193 3
166 167 3
166 194 1
167 168 5
167 195 2
168 196 4
169 170 4
169 197 3
170 171 4
170 198 2
171 172 3
171 199 4
172 173 2
172 200 2
173 174 1
173 201 5
174 175 5
174 202 5
175 176 5
175 203 2
176 177 4
176 204 3
177 178 3
177 205 5
178 179 3
178 206 5
179 180 2
179 207 3
180 181 4
180 208 2
181 182 5
181 209 5
182 183 5
182 210 2
183 184 4
183 211 1
184 185 1
184 212 4
185 186 4
185 213 2
186 187 2
186 214 3
187 188 4
187 215 5
188 189 1
188 216 5
189 190 5
189 217 3
190 191 1
190 218 4
191 192 5
191 219 1
192 193 2
192 220 2
193 194 4
193 221 5
194 195 2
194 222 1
195 196 3
195 223 2
196 224 4
197 198 1
197 225 3
198 199 4
198 226 4
199 200 4
199 227 1
200 201 5
200 228 1
201 202 3
201 229 3
202 203 4
202 230 5
203 204 3
203 231 1
204 205 2
204 232 4
205 206 2
205 233 4
206 207 4
206 234 1
207 208 5
207 235 5
208 209 4
208 236 2
209 210 4
209 237 5
210 211 3
210 238 3
211 212 4
211 239 5
212 213 1
212 240 2
213 214 4
213 241 1
214 215 1
214 242 3
215 216 2
215 243 1
216 217 4
216 244 3
217 218 1
217 245 4
218 219 1
218 246 4
219 220 1
219 247 4
220 221 5
220 248 2
221 222 4
221 249 1
222 223 3
222 250 5
223 224 1
223 251 2
224 252 4
225 226 2
225 253 2
226 227 3
226 254 1
227 228 3
227 255 4
228 229 1
228 256 1
229 230 5
229 257 4
230 231 4
230 258 4
231 232 3
231 259 5
232 233 1
232 260 2
233 234 3
233 261 3
234 235 4
234 262 3
235 236 5
235 263 2
236 237 1
236 264 3
237 238 3
237 265 5
238 239 4
238 266 2
239 240 3
239 267 2
240 241 3
240 268 5
241 242 4
241 269 1
242 243 4
242 270 3
243 244 5
243 271 2
244 245 3
244 272 2
245 246 1
245 273 5
246 247 3
246 274 3
247 248 3
247 275 1
248 249 4
248 276 5
249 250 4
249 277 4
250 251 4
250 278 1
251 252 2
251 279 1
252 280 5
253 254 4
253 281 1
254 255 4
254 282 2
255 256 1
255 283 4
256 257 5
256 284 3
257 258 3
257 285 3
258 259 3
258 286 1
259 260 5
259 287 2
260 261 3
260 288 3
261 262 2
261 289 2
262 263 5
262 290 3
263 264 1
263 291 3
264 265 2
264 292 5
265 266 5
265 293 2
266 267 3
266 294 4
267 268 1
267 295 5
268 269 5
268 296 5
269 270 1
269 297 5
270 271 1
270 298 3
271 272 4
271 299 5
272 273 2
272 300 5
273 274 1
273 301 3
274 275 3
274 302 3
275 276 2
275 303 2
276 277 4
276 304 2
277 278 5
277 305 5
278 279 5
278 306 3
279 280 1
279 307 1
280 308 1
281 282 1
281 309 5
282 283 3
282 310 1
283 284 1
283 311 1
284 285 5
284 312 3
285 286 3
285 313 1
286 287 3
286 314 5
287 288 4
287 315 3
288 289 4
288 316 1
289 290 5
289 317 2
290 291 1
290 318 5
291 292 5
291 319 1
292 293 1
292 320 1
293 294 1
293 321 3
294 295 4
294 322 3
295 296 4
295 323 5
296 297 1
296 324 2
297 298 2
297 325 4
298 299 1
298 326 3
299 300 2
299 327 4
300 301 2
300 328 3
301 302 3
301 329 5
302 303 3
302 330 4
303 304 1
303 331 2
304 305 1
304 332 2
305 306 5
305 333 5
306 307 2
306 334 5
307 308 5
307 335 4
308 336 3
309 310 1
309 337 4
310 311 5
310 338 2
311 312 2
311 339 1
312 313 3
312 340 4
313 314 4
313 341 5
314 315 3
314 342 4
315 316 1
315 343 1
316 317 5
316 344 1
317 318 2
317 345 4
318 319 1
318 346 4
319 320 3
319 347 2
320 321 4
320 348 2
321 322 1
321 349 3
322 323 5
322 350 3
323 324 1
323 351 2
324 325 5
324 352 5
325 326 1
325 353 5
326 327 2
326 354 4
327 328 1
327 355 4
328 329 1
328 356 3
329 330 1
329 357 3
330 331 1
330 358 4
331 332 3
331 359 4
332 333 1
332 360 4
333 334 3
333 361 1
334 335 1
334 362 1
335 336 2
335 363 5
336 364 1
337 338 4
337 365 3
338 339 4
338 366 3
339 340 4
339 367 5
340 341 2
340 368 5
341 342 2
341 369 3
342 343 5
342 370 2
343 344 5
343 371 5
344 345 3
344 372 3
345 346 1
345 373 2
346 347 3
346 374 1
347 348 4
347 375 5
348 349 2
348 376 3
349 350 5
349 377 4
350 351 3
350 378 1
351 352 3
351 379 4
352 353 5
352 380 3
353 354 3
353 381 3
354 355 2
354 382 3
355 356 2
355 383 5
356 357 2
356 384 3
357 358 1
357 385 5
358 359 5
358 386 5
359 360 3
359 387 4
360 361 3
360 388 3
361 362 5
361 389 4
362 363 2
362 390 3
363 364 1
363 391 5
364 392 3
365 366 2
365 393 1
366 367 2
366 394 2
367 368 3
367 395 5
368 369 3
368 396 2
369 370 4
369 397 5
370 371 5
370 398 4
371 372 4
371 399 1
372 373 1
372 400 5
373 374 1
373 401 1
374 375 5
374 402 4
375 376 2
375 403 4
376 377 2
376 404 2
377 378 4
377 405 4
378 379 5
378 406 1
379 380 1
379 407 2
380 381 5
380 408 4
381 382 2
381 409 5
382 383 3
382 410 4
383 384 5
383 411 5
384 385 5
384 412 2
385 386 1
385 413 4
386 387 3
386 414 5
387 388 3
387 415 4
388 389 4
388 416 2
389 390 1
389 417 4
390 391 1
390 418 4
391 392 5
391 419 5
392 420 1
393 394 2
393 421 2
394 395 2
394 422 5
395 396 5
395 423 4
396 397 2
396 424 4
397 398 5
397 425 3
398 399 4
398 426 5
399 400 1
399 427 2
400 401 4
400 428 2
401 402 4
401 429 2
402 403 3
402 430 5
403 404 2
403 431 2
404 405 4
404 432 4
405 406 5
405 433 3
406 407 3
406 434 3
407 408 2
407 435 2
408 409 5
408 436 4
409 410 2
409 437 1
410 411 5
410 438 5
411 412 2
411 439 4
412 413 3
412 440 2
413 414 2
413 441 2
414 415 3
414 442 5
415 416 4
415 443 5
416 417 4
416 444 1
417 418 1
417 445 5
418 419 5
418 446 5
419 420 1
419 447 3
420 448 5
421 422 4
421 449 1
422 423 2
422 450 1
423 424 3
423 451 2
424 425 1
424 452 2
425 426 3
425 453 2
426 427 5
426 454 4
427 428 2
427 455 4
428 429 1
428 456 3
429 430 5
429 457 4
430 431 1
430 458 4
431 432 5
431 459 1
432 433 4
432 460 2
433 434 3
433 461 3
434 435 5
434 462 5
435 436 3
435 463 3
436 437 3
436 464 5
437 438 2
437 465 2
438 439 5
438 466 1
439 440 5
439 467 1
440 441 3
440 468 5
441 442 4
441 469 1
442 443 4
442 470 2
443 444 4
443 471 1
444 445 1
444 472 4
445 446 4
445 473 3
446 447 4
446 474 3
447 448 1
447 475 1
448 476 3
449 450 1
449 477 1
450 451 2
450 478 1
451 452 1
451 479 3
452 453 4
452 480 1
453 454 4
453 481 1
454 455 4
454 482 1
455 456 3
455 483 2
456 457 2
456 484 3
457 458 5
457 485 1
458 459 1
458 486 1
459 460 3
459 487 3
460 461 2
460 488 3
461 462 1
461 489 3
462 463 2
462 490 2
463 464 4
463 491 4
464 465 4
464 492 1
465 466 4
465 493 2
466 467 3
466 494 3
467 468 3
467 495 5
468 469 1
468 496 5
469 470 5
469 497 4
470 471 3
470 498 5
471 472 3
471 499 1
472 473 4
472 500 5
473 474 3
473 501 4
474 475 2
474 502 3
475 476 1
475 503 4
476 504 2
477 478 3
477 505 2
478 479 3
478 506 4
479 480 1
479 507 1
480 481 2
480 508 1
481 482 5
481 509 1
482 483 5
482 510 1
483 484 3
483 511 2
484 485 5
484 512 2
485 486 5
485 513 2
486 487 2
486 514 1
487 488 1
487 515 4
488 489 1
488 516 4
489 490 1
489 517 4
490 491 5
490 518 2
491 492 1
491 519 4
492 493 3
492 520 1
493 494 5
493 521 4
494 495 2
494 522 3
495 496 2
495 523 5
496 497 5
496 524 4
497 498 1
497 525 3
498 499 1
498 526 3
499 500 1
499 527 4
500 501 4
500 528 5
501 502 5
501 529 1
502 503 4
502 530 4
503 504 1
503 531 1
504 532 5
505 506 3
505 533 5
506 507 3
506 534 5
507 508 3
507 535 1
508 509 4
508 536 2
509 510 1
509 537 5
510 511 5
510 538 2
511 512 1
511 539 5
512 513 2
512 540 2
513 514 5
513 541 2
514 515 1
514 542 5
515 516 5
515 543 2
516 517 5
516 544 5
517 518 3
517 545 5
518 519 2
518 546 4
519 520 4
519 547 3
520 521 2
520 548 5
521 522 4
521 549 1
522 523 1
522 550 4
523 524 1
523 551 1
524 525 4
524 552 4
525 526 3
525 553 1
526 527 1
526 554 4
527 528 3
527 555 2
528 529 3
528 556 4
529 530 4
529 557 2
530 531 5
530 558 1
531 532 4
531 559 3
532 560 4
533 534 5
533 561 2
534 535 1
534 562 2
535 536 2
535 563 5
536 537 5
536 564 5
537 538 4
537 565 1
538 539 5
538 566 4
539 540 5
539 567 3
540 541 5
540 568 1
541 542 4
541 569 4
542 543 5
542 570 1
543 544 3
543 571 3
544 545 3
544 572 5
545 546 3
545 573 2
546 547 2
546 574 5
547 548 2
547 575 1
548 549 3
548 576 4
549 550 1
549 577 4
550 551 3
550 578 5
551 552 3
551 579 4
552 553 5
552 580 2
553 554 4
553 581 1
554 555 3
554 582 2
555 556 4
555 583 4
556 557 2
556 584 2
557 558 3
557 585 1
558 559 5
558 586 2
559 560 2
559 587 4
560 588 4
561 562 5
561 589 2
562 563 4
562 590 3
563 564 2
563 591 5
564 565 3
564 592 5
565 566 3
565 593 5
566 567 4
566 594 3
567 568 1
567 595 4
568 569 3
568 596 4
569 570 1
569 597 2
570 571 3
570 598 4
571 572 2
571 599 2
572 573 5
572 600 3
573 574 2
573 601 2
574 575 2
574 602 3
575 576 1
575 603 4
576 577 3
576 604 3
577 578 5
577 605 1
578 579 5
578 606 3
579 580 5
579 607 3
580 581 2
580 608 3
581 582 3
581 609 1
582 583 1
582 610 4
583 584 5
583 611 4
584 585 4
584 612 5
585 586 1
585 613 4
586 587 4
586 614 3
587 588 3
587 615 3
588 616 5
589 590 1
589 617 3
590 591 2
590 618 2
591 592 3
591 619 5
592 593 4
592 620 1
593 594 2
593 621 3
594 595 1
594 622 4
595 596 4
595 623 3
596 597 4
596 624 1
597 598 4
597 625 5
598 599 4
598 626 3
599 600 3
599 627 3
600 601 2
600 628 5
601 602 4
601 629 1
602 603 1
602 630 5
603 604 4
603 631 3
604 605 3
604 632 4
605 606 4
605 633 1
606 607 1
606 634 4
607 608 3
607 635 1
608 609 3
608 636 2
609 610 1
609 637 5
610 611 4
610 638 2
611 612 2
611 639 1
612 613 2
612 640 4
613 614 1
613 641 1
614 615 2
614 642 5
615 616 3
615 643 1
616 644 2
617 618 3
617 645 3
618 619 1
618 646 1
619 620 5
619 647 5
620 621 5
620 648 3
621 622 1
621 649 3
622 623 4
622 650 2
623 624 4
623 651 2
624 625 2
624 652 4
625 626 3
625 653 4
626 627 4
626 654 3
627 628 2
627 655 5
628 629 4
628 656 3
629 630 2
629 657 3
630 631 3
630 658 2
631 632 4
631 659 1
632 633 5
632 660 1
633 634 5
633 661 5
634 635 4
634 662 5
635 636 5
635 663 3
636 637 3
636 664 1
637 638 2
637 665 1
638 639 3
638 666 2
639 640 2
639 667 4
640 641 5
640 668 2
641 642 2
641 669 5
642 643 4
642 670 3
643 644 5
643 671 5
644 672 1
645 646 4
645 673 2
646 647 4
646 674 5
647 648 3
647 675 1
648 649 5
648 676 2
649 650 5
649 677 2
650 651 1
650 678 3
651 652 5
651 679 3
652 653 3
652 680 5
653 654 4
653 681 5
654 655 3
654 682 5
655 656 2
655 683 4
656 657 5
656 684 5
657 658 4
657 685 2
658 659 1
658 686 2
659 660 3
659 687 1
660 661 3
660 688 2
661 662 4
661 689 4
662 663 3
662 690 4
663 664 1
663 691 3
664 665 2
664 692 4
665 666 3
665 693 3
666 667 4
666 694 3
667 668 4
667 695 2
668 669 5
668 696 3
669 670 1
669 697 1
670 671 2
670 698 5
671 672 3
671 699 3
672 700 3
673 674 5
673 701 1
674 675 1
674 702 1
675 676 3
675 703 1
676 677 5
676 704 1
677 678 2
677 705 5
678 679 3
678 706 1
679 680 1
679 707 1
680 681 2
680 708 2
681 682 2
681 709 1
682 683 1
682 710 2
683 684 5
683 711 3
684 685 5
684 712 3
685 686 1
685 713 1
686 687 4
686 714 5
687 688 1
687 715 5
688 689 3
688 716 3
689 690 4
689 717 3
690 691 4
690 718 3
691 692 2
691 719 3
692 693 5
692 720 3
693 694 1
693 721 5
694 695 3
694 722 5
695 696 2
695 723 3
696 697 5
696 724 2
697 698 1
697 725 3
698 699 4
698 726 1
699 700 1
699 727 5
700 728 3
701 702 3
701 729 5
702 703 2
702 730 5
703 704 2
703 731 4
704 705 1
704 732 4
705 706 5
705 733 5
706 707 4
706 734 2
707 708 3
707 735 3
708 709 5
708 736 5
709 710 1
709 737 5
710 711 3
710 738 2
711 712 1
711 739 5
712 713 3
712 740 4
713 714 3
713 741 3
714 715 3
714 742 3
715 716 1
715 743 4
716 717 5
716 744 1
717 718 1
717 745 2
718 719 1
718 746 3
719 720 2
719 747 1
720 721 4
720 748 2
721 722 4
721 749 3
722 723 4
722 750 1
723 724 3
723 751 1
724 725 4
724 752 4
725 726 5
725 753 5
726 727 5
726 754 3
727 728 4
727 755 3
728 756 5
729 730 3
729 757 1
730 731 3
730 758 5
731 732 3
731 759 2
732 733 4
732 760 2
733 734 3
733 761 2
734 735 5
734 762 4
735 736 4
735 763 5
736 737 4
736 764 1
737 738 1
737 765 2
738 739 2
738 766 4
739 740 3
739 767 5
740 741 4
740 768 4
741 742 2
741 769 2
742 743 4
742 770 3
743 744 4
743 771 1
744 745 4
744 772 4
745 746 2
745 773 3
746 747 4
746 774 3
747 748 5
747 775 1
748 749 1
748 776 1
749 750 4
749 777 3
750 751 5
750 778 5
751 752 1
751 779 4
752 753 3
752 780 4
753 754 5
753 781 5
754 755 3
754 782 3
755 756 1
755 783 2
756 784 3
757 758 2
758 759 3
759 760 1
760 761 5
761 762 4
762 763 4
763 764 1
764 765 3
765 766 2
766 767 3
767 768 3
768 769 2
769 770 4
770 771 1
771 772 5
772 773 2
773 774 1
774 775 4
775 776 2
776 777 3
777 778 4
778 779 1
779 780 5
780 781 2
781 782 3
782 783 4
783 784 1
1 757 2
2 758 2
3 759 3
4 760 2
5 761 2
6 762 4
7 763 1
8 764 4
9 765 4
10 766 5
11 767 2
12 768 4
13 769 5
14 770 1
15 771 5
16 772 5
17 773 2
18 774 3
19 775 1
20 776 4
21 777 3
22 778 1
23 779 1
24 780 1
25 781 4
26 782 2
27 783 3
28 784 4
1 28 3
29 56 3
57 84 3
85 112 2
113 140 5
141 168 4
169 196 3
197 224 5
225 252 4
253 280 3
281 308 4
309 336 5
337 364 2
365 392 3
393 420 5
421 448 5
449 476 5
477 504 1
505 532 3
533 560 2
561 588 5
589 616 4
617 644 1
645 672 3
673 700 3
701 728 5
729 756 4
757 784 3
